Servers = 4;
Clients = 6;

Capacity = [30, 40, 60, 60];
DeploymentCost = [860, 350, 440, 580];
ClientDemands = [12, 17, 5, 13, 20, 25];

NetworkingCost = [|27, 66, 44, 55
              |53, 89, 68, 46
              |17, 40, 18, 61
              |20, 68, 44, 78
              |42, 89, 65, 78 
              |57, 55, 49, 31|];
